; Options: -in -smt2
(set-option :produce-unsat-assumptions true)

(declare-fun start!38014 () Bool)

(assert start!38014)

(declare-fun i!510 () (_ BitVec 32))

(assert (=> start!38014 (and (bvsge i!510 #b00000000000000000000000000000000) (bvsle i!510 #b00000000000000000000000000010100) (bvslt i!510 #b00000000000000000000000000010100) (= (bvand i!510 #b10000000000000000000000000000000) #b00000000000000000000000000000000) (not (= (bvand i!510 #b10000000000000000000000000000000) (bvand (bvadd #b00000000000000000000000000000001 i!510) #b10000000000000000000000000000000))))))

(assert (=> start!38014 true))

(check-sat)
